MARKOV
605
 2 2 2 2 2 2 2 2 2 2 2 2 2 2 2 2 2 2 2 2 2 2 2 2 2 2 2 2 2 2 2 2 2 2 2 2 2 2 2 2 2 2 2 2 2 2 2 2 2 2 2 2 2 2 2 2 2 2 2 2 2 2 2 2 2 2 2 2 2 2 2 2 2 2 2 2 2 2 2 2 2 2 2 2 2 2 2 2 2 2 2 2 2 2 2 2 2 2 2 2 2 2 2 2 2 2 2 2 2 2 2 2 2 2 2 2 2 2 2 2 2 2 2 2 2 2 2 2 2 2 2 2 2 2 2 2 2 2 2 2 2 2 2 2 2 2 2 2 2 2 2 2 2 2 2 2 2 2 2 2 2 2 2 2 2 2 2 2 2 2 2 2 2 2 2 2 2 2 2 2 2 2 2 2 2 2 2 2 2 2 2 2 2 2 2 2 2 2 2 2 2 2 2 2 2 2 2 2 2 2 2 2 2 2 2 2 2 2 2 2 2 2 2 2 2 2 2 2 2 2 2 2 2 2 2 2 2 2 2 2 2 2 2 2 2 2 2 2 2 2 2 2 2 2 2 2 2 2 2 2 2 2 2 2 2 2 2 2 2 2 2 2 2 2 2 2 2 2 2 2 2 2 2 2 2 2 2 2 2 2 2 2 2 2 2 2 2 2 2 2 2 2 2 2 2 2 2 2 2 2 2 2 2 2 2 2 2 2 2 2 2 2 2 2 2 2 2 2 2 2 2 2 2 2 2 2 2 2 2 2 2 2 2 2 2 2 2 2 2 2 2 2 2 2 2 2 2 2 2 2 2 2 2 2 2 2 2 2 2 2 2 2 2 2 2 2 2 2 2 2 2 2 2 2 2 2 2 2 2 2 2 2 2 2 2 2 2 2 2 2 2 2 2 2 2 2 2 2 2 2 2 2 2 2 2 2 2 2 2 2 2 2 2 2 2 2 2 2 2 2 2 2 2 2 2 2 2 2 2 2 2 2 2 2 2 2 2 2 2 2 2 2 2 2 2 2 2 2 2 2 2 2 2 2 2 2 2 2 2 2 2 2 2 2 2 2 2 2 2 2 2 2 2 2 2 2 2 2 2 2 2 2 2 2 2 2 2 2 2 2 2 2 2 2 2 2 2 2 2 2 2 2 2 2 2 2 2 2 2 2 2 2 2 2 2 2 2 2 2 2 2 2 2 2 2 2 2 2 2 2 2 2 2 2 2 2 2 2 2 2 2 2 2 2 2 2 2 2 2 2 2 2 2 2 2 2 2 2 2 2 2 2 2 2 2 2 2 2 2 2 2 2 2 2 2 2 2 2 2 2 2 2 2 2 2 2 2 2 2 2 2 2 2 2 2
613
3	47 131 604 
3	110 603 604 
3	64 602 603 
3	3 601 602 
3	128 600 601 
3	77 599 600 
3	136 598 599 
3	36 597 598 
3	67 596 597 
3	156 595 596 
3	168 594 595 
3	132 593 594 
3	219 592 593 
3	55 591 592 
3	34 590 591 
3	65 589 590 
3	46 588 589 
3	188 587 588 
3	192 586 587 
3	95 585 586 
3	5 584 585 
3	53 583 584 
3	161 582 583 
3	59 581 582 
3	167 580 581 
3	98 579 580 
3	42 578 579 
1	578 
3	82 196 577 
3	72 576 577 
3	227 575 576 
3	80 574 575 
3	56 573 574 
3	4 572 573 
3	83 571 572 
3	186 570 571 
3	32 569 570 
3	185 568 569 
3	18 567 568 
3	63 566 567 
3	87 565 566 
3	127 564 565 
3	81 563 564 
3	86 562 563 
3	223 561 562 
3	172 560 561 
3	93 559 560 
3	182 558 559 
3	198 557 558 
3	2 556 557 
3	133 555 556 
3	113 554 555 
3	163 553 554 
3	211 552 553 
3	135 551 552 
3	92 550 551 
3	109 549 550 
3	124 548 549 
3	25 547 548 
3	10 546 547 
3	68 545 546 
3	152 544 545 
3	184 543 544 
3	111 542 543 
3	221 541 542 
3	0 540 541 
3	79 539 540 
3	126 538 539 
1	538 
1	144 
3	102 173 537 
3	82 536 537 
3	1 535 536 
3	178 534 535 
3	149 533 534 
3	214 532 533 
3	101 531 532 
3	154 530 531 
3	31 529 530 
3	228 528 529 
3	226 527 528 
3	205 526 527 
3	216 525 526 
3	219 524 525 
3	71 523 524 
3	172 522 523 
3	143 521 522 
3	58 520 521 
3	11 519 520 
3	197 518 519 
3	171 517 518 
3	212 516 517 
3	16 515 516 
3	190 514 515 
3	162 513 514 
3	217 512 513 
3	116 511 512 
3	60 510 511 
3	135 509 510 
3	222 508 509 
3	193 507 508 
3	88 506 507 
3	187 505 506 
3	75 504 505 
3	10 503 504 
3	123 502 503 
3	151 501 502 
3	115 500 501 
3	129 499 500 
3	202 498 499 
3	207 497 498 
3	79 496 497 
3	114 495 496 
3	177 494 495 
3	160 493 494 
3	196 492 493 
3	125 491 492 
3	80 490 491 
3	170 489 490 
3	83 488 489 
3	21 487 488 
3	24 486 487 
3	77 485 486 
3	84 484 485 
3	213 483 484 
3	158 482 483 
3	134 481 482 
3	96 480 481 
3	148 479 480 
3	45 478 479 
3	223 477 478 
3	8 476 477 
3	198 475 476 
3	142 474 475 
3	155 473 474 
3	117 472 473 
3	130 471 472 
3	157 470 471 
3	225 469 470 
3	74 468 469 
3	112 467 468 
3	120 466 467 
3	49 465 466 
3	179 464 465 
3	175 463 464 
3	13 462 463 
3	9 461 462 
3	38 460 461 
3	95 459 460 
3	195 458 459 
3	91 457 458 
3	140 456 457 
3	139 455 456 
3	147 454 455 
3	44 453 454 
3	119 452 453 
1	452 
3	82 102 451 
3	178 450 451 
3	1 449 450 
3	149 448 449 
3	125 447 448 
3	170 446 447 
3	154 445 446 
3	90 444 445 
3	84 443 444 
3	77 442 443 
3	226 441 442 
3	213 440 441 
3	159 439 440 
3	26 438 439 
3	107 437 438 
3	200 436 437 
3	62 435 436 
3	216 434 435 
3	158 433 434 
3	134 432 433 
3	219 431 432 
3	55 430 431 
3	71 429 430 
3	148 428 429 
3	45 427 428 
3	146 426 427 
3	142 425 426 
3	197 424 425 
3	157 423 424 
3	212 422 423 
3	16 421 422 
3	190 420 421 
3	162 419 420 
3	211 418 419 
3	116 417 418 
3	112 416 417 
3	193 415 416 
3	75 414 415 
3	179 413 414 
3	175 412 413 
3	13 411 412 
3	9 410 411 
3	7 409 410 
3	38 408 409 
3	69 407 408 
3	199 406 407 
3	118 405 406 
3	129 404 405 
3	95 403 404 
3	202 402 403 
3	91 401 402 
3	139 400 401 
3	147 399 400 
3	181 398 399 
3	119 397 398 
1	397 
3	62 199 396 
3	170 395 396 
3	226 394 395 
1	394 
3	173 178 393 
3	50 392 393 
3	204 391 392 
3	90 390 391 
3	31 389 390 
3	35 388 389 
3	226 387 388 
3	70 386 387 
3	216 385 386 
3	150 384 385 
3	121 383 384 
3	85 382 383 
3	106 381 382 
3	97 380 381 
3	23 379 380 
3	174 378 379 
3	197 377 378 
3	212 376 377 
3	190 375 376 
3	162 374 375 
3	116 373 374 
3	211 372 373 
3	60 371 372 
3	208 370 371 
3	193 369 370 
3	73 368 369 
3	88 367 368 
3	76 366 367 
3	199 365 366 
3	69 364 365 
3	40 363 364 
3	15 362 363 
3	79 361 362 
3	114 360 361 
3	194 359 360 
3	80 358 359 
3	203 357 358 
3	164 356 357 
3	30 355 356 
3	54 354 355 
3	170 353 354 
3	83 352 353 
3	224 351 352 
3	66 350 351 
3	57 349 350 
3	84 348 349 
3	36 347 348 
3	213 346 347 
3	107 345 346 
3	122 344 345 
3	209 343 344 
3	62 342 343 
3	63 341 342 
3	134 340 341 
3	55 339 340 
3	12 338 339 
3	108 337 338 
3	45 336 337 
3	218 335 336 
3	189 334 335 
3	182 333 334 
3	155 332 333 
3	20 331 332 
3	43 330 331 
3	6 329 330 
3	157 328 329 
3	42 327 328 
3	113 326 327 
3	52 325 326 
3	163 324 325 
3	19 323 324 
3	74 322 323 
3	94 321 322 
3	210 320 321 
3	175 319 320 
3	68 318 319 
3	9 317 318 
3	141 316 317 
3	48 315 316 
3	138 314 315 
3	95 313 314 
3	91 312 313 
3	215 311 312 
3	78 310 311 
3	181 309 310 
3	153 308 309 
3	102 307 308 
3	105 306 307 
3	82 305 306 
3	41 304 305 
3	1 303 304 
3	149 302 303 
3	214 301 302 
3	29 300 301 
3	154 299 300 
3	180 298 299 
3	220 297 298 
3	26 296 297 
3	200 295 296 
3	219 294 295 
3	137 293 294 
3	71 292 293 
3	172 291 292 
3	99 290 291 
3	201 289 290 
3	169 288 289 
3	206 287 288 
3	16 286 287 
3	51 285 286 
3	92 284 285 
3	165 283 284 
3	222 282 283 
3	145 281 282 
3	28 280 281 
3	103 279 280 
3	187 278 279 
3	75 277 278 
3	123 276 277 
3	168 275 276 
3	151 274 275 
3	118 273 274 
3	115 272 273 
3	129 271 272 
3	100 270 271 
3	61 269 270 
3	166 268 269 
3	202 267 268 
3	177 266 267 
3	89 265 266 
3	191 264 265 
3	196 263 264 
3	104 262 263 
3	125 261 262 
3	227 260 261 
3	176 259 260 
3	4 258 259 
3	21 257 258 
3	27 256 257 
3	24 255 256 
3	77 254 255 
3	159 253 254 
3	158 252 253 
3	17 251 252 
3	148 250 251 
3	223 249 250 
3	183 248 249 
3	146 247 248 
3	142 246 247 
3	117 245 246 
3	225 244 245 
3	112 243 244 
3	64 242 243 
3	39 241 242 
3	37 240 241 
3	33 239 240 
3	179 238 239 
3	14 237 238 
3	13 236 237 
3	7 235 236 
3	38 234 235 
3	22 233 234 
3	139 232 233 
3	147 231 232 
3	44 230 231 
3	119 229 230 
1	229 
1	173 
1	178 
1	110 
1	50 
1	204 
1	31 
1	90 
1	35 
1	226 
1	205 
1	185 
1	70 
1	216 
1	150 
1	121 
1	127 
1	81 
1	85 
1	106 
1	97 
1	23 
1	197 
1	174 
1	171 
1	212 
1	190 
1	162 
1	116 
1	211 
1	60 
1	208 
1	193 
1	73 
1	88 
1	10 
1	132 
1	76 
1	199 
1	69 
1	40 
1	15 
1	221 
1	207 
1	79 
1	114 
1	194 
1	160 
1	80 
1	203 
1	164 
1	30 
1	54 
1	83 
1	170 
1	224 
1	66 
1	57 
1	84 
1	36 
1	186 
1	213 
1	107 
1	122 
1	209 
1	62 
1	63 
1	134 
1	55 
1	144 
1	12 
1	108 
1	45 
1	218 
1	189 
1	192 
1	182 
1	198 
1	8 
1	155 
1	130 
1	59 
1	20 
1	43 
1	6 
1	157 
1	167 
1	42 
1	113 
1	47 
1	52 
1	163 
1	74 
1	19 
1	109 
1	128 
1	124 
1	94 
1	210 
1	175 
1	68 
1	9 
1	141 
1	48 
1	111 
1	138 
1	95 
1	91 
1	215 
1	78 
1	181 
1	153 
1	102 
1	105 
1	82 
1	41 
1	1 
1	149 
1	72 
1	214 
1	56 
1	101 
1	29 
1	154 
1	228 
1	180 
1	220 
1	26 
1	32 
1	200 
1	18 
1	87 
1	219 
1	137 
1	71 
1	172 
1	143 
1	5 
1	58 
1	11 
1	161 
1	99 
1	201 
1	133 
1	169 
1	206 
1	16 
1	217 
1	51 
1	135 
1	165 
1	92 
1	222 
1	145 
1	25 
1	103 
1	28 
1	136 
1	187 
1	75 
1	156 
1	123 
1	152 
1	168 
1	151 
1	118 
1	115 
1	61 
1	100 
1	129 
1	166 
1	53 
1	202 
1	177 
1	89 
1	98 
1	191 
1	196 
1	104 
1	125 
1	227 
1	176 
1	4 
1	21 
1	27 
1	24 
1	77 
1	67 
1	159 
1	158 
1	17 
1	96 
1	86 
1	223 
1	148 
1	65 
1	183 
1	188 
1	93 
1	146 
1	142 
1	117 
1	2 
1	131 
1	225 
1	112 
1	120 
1	64 
1	49 
1	3 
1	37 
1	39 
1	33 
1	179 
1	14 
1	13 
1	7 
1	184 
1	38 
1	34 
1	46 
1	195 
1	0 
1	22 
1	140 
1	139 
1	147 
1	44 
1	126 
1	119 
0	

8
 1 0 0.6 0.4 0.5 0.5 0.3 0.7
8
 1 0 0 1 0.6 0 0.4 1
8
 1 0 0 1 0.8 0 0.2 1
8
 1 0 0 1 0.5 0 0.5 1
8
 1 0 0 1 0.8 0 0.2 1
8
 1 0 0 1 0.5 0 0.5 1
8
 1 0 0 1 0.4 0 0.6 1
8
 1 0 0 1 0.5 0 0.5 1
8
 1 0 0 1 0.7 0 0.3 1
8
 1 0 0 1 0.6 0 0.4 1
8
 1 0 0 1 0.5 0 0.5 1
8
 1 0 0 1 0.7 0 0.3 1
8
 1 0 0 1 0.5 0 0.5 1
8
 1 0 0 1 0.6 0 0.4 1
8
 1 0 0 1 0.1 0 0.9 1
8
 1 0 0 1 0.5 0 0.5 1
8
 1 0 0 1 0.6 0 0.4 1
8
 1 0 0 1 0.6 0 0.4 1
8
 1 0 0 1 0.5 0 0.5 1
8
 1 0 0 1 0.5 0 0.5 1
8
 1 0 0 1 0.4 0 0.6 1
8
 1 0 0 1 0 0 1 1
8
 1 0 0 1 0.4 0 0.6 1
8
 1 0 0 1 0.4 0 0.6 1
8
 1 0 0 1 0.3 0 0.7 1
8
 1 0 0 1 0 0 1 1
8
 1 0 0 1 0.5 0 0.5 1
2
 0.03 1
8
 1 0 0.5 0.5 0.2 0.8 0.1 0.9
8
 1 0 0 1 0.6 0 0.4 1
8
 1 0 0 1 0.4 0 0.6 1
8
 1 0 0 1 0.5 0 0.5 1
8
 1 0 0 1 0.5 0 0.5 1
8
 1 0 0 1 0.1 0 0.9 1
8
 1 0 0 1 0.5 0 0.5 1
8
 1 0 0 1 0.5 0 0.5 1
8
 1 0 0 1 0.2 0 0.8 1
8
 1 0 0 1 0.5 0 0.5 1
8
 1 0 0 1 0.1 0 0.9 1
8
 1 0 0 1 0.75 0 0.25 1
8
 1 0 0 1 0.2 0 0.8 1
8
 1 0 0 1 0.1 0 0.9 1
8
 1 0 0 1 0.5 0 0.5 1
8
 1 0 0 1 0.5 0 0.5 1
8
 1 0 0 1 0.2 0 0.8 1
8
 1 0 0 1 0.5 0 0.5 1
8
 1 0 0 1 0.5 0 0.5 1
8
 1 0 0 1 0.2 0 0.8 1
8
 1 0 0 1 0.5 0 0.5 1
8
 1 0 0 1 0.5 0 0.5 1
8
 1 0 0 1 0.5 0 0.5 1
8
 1 0 0 1 0.4 0 0.6 1
8
 1 0 0 1 0.89 0 0.11 1
8
 1 0 0 1 0.5 0 0.5 1
8
 1 0 0 1 0.5 0 0.5 1
8
 1 0 0 1 0.9 0 0.1 1
8
 1 0 0 1 0.1 0 0.9 1
8
 1 0 0 1 0.1 0 0.9 1
8
 1 0 0 1 0.2 0 0.8 1
8
 1 0 0 1 0.4 0 0.6 1
8
 1 0 0 1 0.5 0 0.5 1
8
 1 0 0 1 0.2 0 0.8 1
8
 1 0 0 1 0.2 0 0.8 1
8
 1 0 0 1 0.1 0 0.9 1
8
 1 0 0 1 0.05 0 0.95 1
8
 1 0 0 1 0.6 0 0.4 1
8
 1 0 0 1 0.5 0 0.5 1
8
 1 0 0 1 0.5 0 0.5 1
2
 0.03 1
2
 0 0.8
8
 1 0 0.9 0.1 0.05 0.95 0.045 0.955
8
 1 0 0 1 0.9 0 0.1 1
8
 1 0 0 1 0.05 0 0.95 1
8
 1 0 0 1 0.05 0 0.95 1
8
 1 0 0 1 0.05 0 0.95 1
8
 1 0 0 1 0.9 0 0.1 1
8
 1 0 0 1 0.3 0 0.7 1
8
 1 0 0 1 0.1 0 0.9 1
8
 1 0 0 1 0.9 0 0.1 1
8
 1 0 0 1 0.3 0 0.7 1
8
 1 0 0 1 0.05 0 0.95 1
8
 1 0 0 1 0.3 0 0.7 1
8
 1 0 0 1 0.05 0 0.95 1
8
 1 0 0 1 0.05 0 0.95 1
8
 1 0 0 1 0.05 0 0.95 1
8
 1 0 0 1 0.5 0 0.5 1
8
 1 0 0 1 0.3 0 0.7 1
8
 1 0 0 1 0.5 0 0.5 1
8
 1 0 0 1 0.9 0 0.1 1
8
 1 0 0 1 0.05 0 0.95 1
8
 1 0 0 1 0.3 0 0.7 1
8
 1 0 0 1 0.05 0 0.95 1
8
 1 0 0 1 0.05 0 0.95 1
8
 1 0 0 1 0.05 0 0.95 1
8
 1 0 0 1 0.05 0 0.95 1
8
 1 0 0 1 0.5 0 0.5 1
8
 1 0 0 1 0.4 0 0.6 1
8
 1 0 0 1 0.9 0 0.1 1
8
 1 0 0 1 0.5 0 0.5 1
8
 1 0 0 1 0.7 0 0.3 1
8
 1 0 0 1 0.01 0 0.99 1
8
 1 0 0 1 0.9 0 0.1 1
8
 1 0 0 1 0.9 0 0.1 1
8
 1 0 0 1 0.05 0 0.95 1
8
 1 0 0 1 0.4 0 0.6 1
8
 1 0 0 1 0.9 0 0.1 1
8
 1 0 0 1 0.9 0 0.1 1
8
 1 0 0 1 0.75 0 0.25 1
8
 1 0 0 1 0.05 0 0.95 1
8
 1 0 0 1 0.05 0 0.95 1
8
 1 0 0 1 0.3 0 0.7 1
8
 1 0 0 1 0.9 0 0.1 1
8
 1 0 0 1 0.5 0 0.5 1
8
 1 0 0 1 0.9 0 0.1 1
8
 1 0 0 1 0.3 0 0.7 1
8
 1 0 0 1 0.5 0 0.5 1
8
 1 0 0 1 0.05 0 0.95 1
8
 1 0 0 1 0.9 0 0.1 1
8
 1 0 0 1 0.5 0 0.5 1
8
 1 0 0 1 0.9 0 0.1 1
8
 1 0 0 1 0.9 0 0.1 1
8
 1 0 0 1 0.9 0 0.1 1
8
 1 0 0 1 0.05 0 0.95 1
8
 1 0 0 1 0.05 0 0.95 1
8
 1 0 0 1 0.05 0 0.95 1
8
 1 0 0 1 0.05 0 0.95 1
8
 1 0 0 1 0.05 0 0.95 1
8
 1 0 0 1 0.3 0 0.7 1
8
 1 0 0 1 0.05 0 0.95 1
8
 1 0 0 1 0.05 0 0.95 1
8
 1 0 0 1 0.9 0 0.1 1
8
 1 0 0 1 0.3 0 0.7 1
8
 1 0 0 1 0.5 0 0.5 1
8
 1 0 0 1 0.05 0 0.95 1
8
 1 0 0 1 0.1 0 0.9 1
8
 1 0 0 1 0.9 0 0.1 1
8
 1 0 0 1 0.89 0 0.11 1
8
 1 0 0 1 0.05 0 0.95 1
8
 1 0 0 1 0.9 0 0.1 1
8
 1 0 0 1 0.89 0 0.11 1
8
 1 0 0 1 0.05 0 0.95 1
8
 1 0 0 1 0.5 0 0.5 1
8
 1 0 0 1 0.09 0 0.91 1
8
 1 0 0 1 0.05 0 0.95 1
8
 1 0 0 1 0.02 0 0.98 1
8
 1 0 0 1 0.05 0 0.95 1
8
 1 0 0 1 0.2 0 0.8 1
8
 1 0 0 1 0.05 0 0.95 1
8
 1 0 0 1 0.05 0 0.95 1
8
 1 0 0 1 0.3 0 0.7 1
8
 1 0 0 1 0.05 0 0.95 1
8
 1 0 0 1 0.4 0 0.6 1
8
 1 0 0 1 0.05 0 0.95 1
8
 1 0 0 1 0.05 0 0.95 1
8
 1 0 0 1 0.9 0 0.1 1
8
 1 0 0 1 0.05 0 0.95 1
2
 0.03 1
8
 1 0 0 1 0 1 0 1
8
 1 0 0 1 0 0 1 1
8
 1 0 0 1 0 0 1 1
8
 1 0 0 1 0 0 1 1
8
 1 0 0 1 0 0 1 1
8
 1 0 0 1 0 0 1 1
8
 1 0 0 1 0 0 1 1
8
 1 0 0 1 0 0 1 1
8
 1 0 0 1 0 0 1 1
8
 1 0 0 1 0 0 1 1
8
 1 0 0 1 0 0 1 1
8
 1 0 0 1 0 0 1 1
8
 1 0 0 1 0 0 1 1
8
 1 0 0 1 0 0 1 1
8
 1 0 0 1 0 0 1 1
8
 1 0 0 1 0 0 1 1
8
 1 0 0 1 0 0 1 1
8
 1 0 0 1 0 0 1 1
8
 1 0 0 1 0 0 1 1
8
 1 0 0 1 0 0 1 1
8
 1 0 0 1 0 0 1 1
8
 1 0 0 1 0 0 1 1
8
 1 0 0 1 0 0 1 1
8
 1 0 0 1 0 0 1 1
8
 1 0 0 1 0 0 1 1
8
 1 0 0 1 0 0 1 1
8
 1 0 0 1 0 0 1 1
8
 1 0 0 1 0 0 1 1
8
 1 0 0 1 0 0 1 1
8
 1 0 0 1 0 0 1 1
8
 1 0 0 1 0 0 1 1
8
 1 0 0 1 0 0 1 1
8
 1 0 0 1 0 0 1 1
8
 1 0 0 1 0 0 1 1
8
 1 0 0 1 0 0 1 1
8
 1 0 0 1 0 0 1 1
8
 1 0 0 1 0 0 1 1
8
 1 0 0 1 0 0 1 1
8
 1 0 0 1 0 0 1 1
8
 1 0 0 1 0 0 1 1
8
 1 0 0 1 0 0 1 1
8
 1 0 0 1 0 0 1 1
8
 1 0 0 1 0 0 1 1
8
 1 0 0 1 0 0 1 1
8
 1 0 0 1 0 0 1 1
8
 1 0 0 1 0 0 1 1
8
 1 0 0 1 0 0 1 1
8
 1 0 0 1 0 0 1 1
8
 1 0 0 1 0 0 1 1
8
 1 0 0 1 0 0 1 1
8
 1 0 0 1 0 0 1 1
8
 1 0 0 1 0 0 1 1
8
 1 0 0 1 0 0 1 1
8
 1 0 0 1 0 0 1 1
8
 1 0 0 1 0 0 1 1
2
 0.03 1
8
 1 0 0 1 0 1 0 1
8
 1 0 0 1 0 0 1 1
8
 1 0 0 1 0 0 1 1
2
 0.03 1
8
 1 0 0 1 0.9 0.1 0 1
8
 1 0 0 1 0.2 0 0.8 1
8
 1 0 0 1 0.5 0 0.5 1
8
 1 0 0 1 0 0 1 1
8
 1 0 0 1 0.9 0 0.1 1
8
 1 0 0 1 0.5 0 0.5 1
8
 1 0 0 1 0.89 0 0.11 1
8
 1 0 0 1 0.5 0 0.5 1
8
 1 0 0 1 0 0 1 1
8
 1 0 0 1 0.89 0 0.11 1
8
 1 0 0 1 0.5 0 0.5 1
8
 1 0 0 1 0.2 0 0.8 1
8
 1 0 0 1 0.1 0 0.9 1
8
 1 0 0 1 0.5 0 0.5 1
8
 1 0 0 1 0.5 0 0.5 1
8
 1 0 0 1 0.1 0 0.9 1
8
 1 0 0 1 0 0 1 1
8
 1 0 0 1 0.5 0 0.5 1
8
 1 0 0 1 0.01 0 0.99 1
8
 1 0 0 1 0 0 1 1
8
 1 0 0 1 0 0 1 1
8
 1 0 0 1 0 0 1 1
8
 1 0 0 1 0.9 0 0.1 1
8
 1 0 0 1 0.5 0 0.5 1
8
 1 0 0 1 0 0 1 1
8
 1 0 0 1 0.5 0 0.5 1
8
 1 0 0 1 0.9 0 0.1 1
8
 1 0 0 1 0.5 0 0.5 1
8
 1 0 0 1 0.1 0 0.9 1
8
 1 0 0 1 0 0 1 1
8
 1 0 0 1 0.1 0 0.9 1
8
 1 0 0 1 0.5 0 0.5 1
8
 1 0 0 1 0.9 0 0.1 1
8
 1 0 0 1 0.5 0 0.5 1
8
 1 0 0 1 0.5 0 0.5 1
8
 1 0 0 1 0.9 0 0.1 1
8
 1 0 0 1 0.09 0 0.91 1
8
 1 0 0 1 0.5 0 0.5 1
8
 1 0 0 1 0.1 0 0.9 1
8
 1 0 0 1 0.5 0 0.5 1
8
 1 0 0 1 0.5 0 0.5 1
8
 1 0 0 1 0.9 0 0.1 1
8
 1 0 0 1 0.09 0 0.91 1
8
 1 0 0 1 0.5 0 0.5 1
8
 1 0 0 1 0.5 0 0.5 1
8
 1 0 0 1 0 0 1 1
8
 1 0 0 1 0.5 0 0.5 1
8
 1 0 0 1 0 0 1 1
8
 1 0 0 1 0 0 1 1
8
 1 0 0 1 0.5 0 0.5 1
8
 1 0 0 1 0.1 0 0.9 1
8
 1 0 0 1 0.5 0 0.5 1
8
 1 0 0 1 0.57 0 0.43 1
8
 1 0 0 1 0 0 1 1
8
 1 0 0 1 0 0 1 1
8
 1 0 0 1 0.5 0 0.5 1
8
 1 0 0 1 0.5 0 0.5 1
8
 1 0 0 1 0 0 1 1
8
 1 0 0 1 0.5 0 0.5 1
8
 1 0 0 1 0.1 0 0.9 1
8
 1 0 0 1 0.5 0 0.5 1
8
 1 0 0 1 0.1 0 0.9 1
8
 1 0 0 1 0.5 0 0.5 1
8
 1 0 0 1 0.4 0 0.6 1
8
 1 0 0 1 0.5 0 0.5 1
8
 1 0 0 1 0 0 1 1
8
 1 0 0 1 0.5 0 0.5 1
8
 1 0 0 1 0.9 0 0.1 1
8
 1 0 0 1 0.5 0 0.5 1
8
 1 0 0 1 0.89 0 0.11 1
8
 1 0 0 1 0.5 0 0.5 1
8
 1 0 0 1 0.5 0 0.5 1
8
 1 0 0 1 0.5 0 0.5 1
8
 1 0 0 1 0.5 0 0.5 1
8
 1 0 0 1 0 0 1 1
8
 1 0 0 1 0.1 0 0.9 1
8
 1 0 0 1 0.6 0 0.4 1
8
 1 0 0 1 0.5 0 0.5 1
8
 1 0 0 1 0.1 0 0.9 1
8
 1 0 0 1 0.5 0 0.5 1
8
 1 0 0 1 0 0 1 1
8
 1 0 0 1 0 0 1 1
8
 1 0 0 1 0.1 0 0.9 1
8
 1 0 0 1 0.59 0 0.41 1
8
 1 0 0 1 0 0 1 1
8
 1 0 0 1 0.4 0 0.6 1
8
 1 0 0 1 0 0 1 1
8
 1 0 0 1 0.5 0 0.5 1
8
 1 0 0 1 0.9 0 0.1 1
8
 1 0 0 1 0.5 0 0.5 1
8
 1 0 0 1 0 0 1 1
8
 1 0 0 1 0 0 1 1
8
 1 0 0 1 0.9 0 0.1 1
8
 1 0 0 1 0.5 0 0.5 1
8
 1 0 0 1 0.1 0 0.9 1
8
 1 0 0 1 0.5 0 0.5 1
8
 1 0 0 1 0.09 0 0.91 1
8
 1 0 0 1 0 0 1 1
8
 1 0 0 1 0 0 1 1
8
 1 0 0 1 0 0 1 1
8
 1 0 0 1 0.89 0 0.11 1
8
 1 0 0 1 0 0 1 1
8
 1 0 0 1 0.5 0 0.5 1
8
 1 0 0 1 0.5 0 0.5 1
8
 1 0 0 1 0.5 0 0.5 1
8
 1 0 0 1 0.5 0 0.5 1
8
 1 0 0 1 0.5 0 0.5 1
8
 1 0 0 1 0 0 1 1
8
 1 0 0 1 0.5 0 0.5 1
8
 1 0 0 1 0.4 0 0.6 1
8
 1 0 0 1 0.5 0 0.5 1
8
 1 0 0 1 0.7 0 0.3 1
8
 1 0 0 1 0.5 0 0.5 1
8
 1 0 0 1 0.89 0 0.11 1
8
 1 0 0 1 0.5 0 0.5 1
8
 1 0 0 1 0.9 0 0.1 1
8
 1 0 0 1 0 0 1 1
8
 1 0 0 1 0.9 0 0.1 1
8
 1 0 0 1 0.5 0 0.5 1
8
 1 0 0 1 0.5 0 0.5 1
8
 1 0 0 1 0 0 1 1
8
 1 0 0 1 0.75 0 0.25 1
8
 1 0 0 1 0 0 1 1
8
 1 0 0 1 0.09 0 0.91 1
8
 1 0 0 1 0.5 0 0.5 1
8
 1 0 0 1 0.5 0 0.5 1
8
 1 0 0 1 0 0 1 1
8
 1 0 0 1 0.9 0 0.1 1
8
 1 0 0 1 0.7 0 0.3 1
8
 1 0 0 1 0.4 0 0.6 1
8
 1 0 0 1 0.5 0 0.5 1
8
 1 0 0 1 0.1 0 0.9 1
8
 1 0 0 1 0 0 1 1
8
 1 0 0 1 0.6 0 0.4 1
8
 1 0 0 1 0.5 0 0.5 1
8
 1 0 0 1 0.4 0 0.6 1
8
 1 0 0 1 0.9 0 0.1 1
8
 1 0 0 1 0.5 0 0.5 1
8
 1 0 0 1 0.9 0 0.1 1
8
 1 0 0 1 0 0 1 1
8
 1 0 0 1 0 0 1 1
8
 1 0 0 1 0 0 1 1
8
 1 0 0 1 0.09 0 0.91 1
8
 1 0 0 1 0 0 1 1
8
 1 0 0 1 0.9 0 0.1 1
8
 1 0 0 1 0.5 0 0.5 1
8
 1 0 0 1 0 0 1 1
8
 1 0 0 1 0 0 1 1
8
 1 0 0 1 0.9 0 0.1 1
8
 1 0 0 1 0.9 0 0.1 1
8
 1 0 0 1 0 0 1 1
8
 1 0 0 1 0.05 0 0.95 1
8
 1 0 0 1 0.5 0 0.5 1
8
 1 0 0 1 0.5 0 0.5 1
8
 1 0 0 1 0.5 0 0.5 1
8
 1 0 0 1 0 0 1 1
8
 1 0 0 1 0.5 0 0.5 1
8
 1 0 0 1 0 0 1 1
8
 1 0 0 1 0.1 0 0.9 1
8
 1 0 0 1 0 0 1 1
8
 1 0 0 1 0.5 0 0.5 1
8
 1 0 0 1 0 0 1 1
8
 1 0 0 1 0 0 1 1
8
 1 0 0 1 0.9 0 0.1 1
8
 1 0 0 1 0.01 0 0.99 1
2
 0.03 1
2
 0.9995 0.0005
2
 0.99995 5e-05
2
 0.99998 2e-05
2
 0.999995 5e-06
2
 0.99999 1e-05
2
 0.99975 0.00025
2
 0.999 0.001
2
 0.99999 1e-05
2
 0.99995 5e-05
2
 0.9998 0.0002
2
 0.9998 0.0002
2
 0.99999 1e-05
2
 0.9999 0.0001
2
 0.9999 0.0001
2
 0.99975 0.00025
2
 0.999998 2e-06
2
 0.9999 0.0001
2
 0.9999 0.0001
2
 0.999999 1e-06
2
 0.99989 0.00011
2
 0.9999 0.0001
2
 0.9999 0.0001
2
 0.9999 0.0001
2
 0.9998 0.0002
2
 0.99998 2e-05
2
 0.99999 1e-05
2
 0.9999 0.0001
2
 0.99995 5e-05
2
 0.998 0.002
2
 0.999998 2e-06
2
 0.99989 0.00011
2
 0.99995 5e-05
2
 0.9999 0.0001
2
 0.99996 4e-05
2
 0.99982 0.00018
2
 0.9998 0.0002
2
 0.99981 0.00019
2
 0.9999 0.0001
2
 0.99998 2e-05
2
 0.9999 0.0001
2
 0.9999 0.0001
2
 0.9999 0.0001
2
 0.9982 0.0018
2
 0.99992 8e-05
2
 0.9999 0.0001
2
 0.99999 1e-05
2
 0.9998 0.0002
2
 0.9996 0.0004
2
 0.99996 4e-05
2
 0.99995 5e-05
2
 0.9999 0.0001
2
 0.9995 0.0005
2
 0.999973 2.7e-05
2
 0.99998 2e-05
2
 0.99995 5e-05
2
 0.99999 1e-05
2
 0.9999 0.0001
2
 0.9999 0.0001
2
 0.9991 0.0009
2
 0.999999 1e-06
2
 0.9999 0.0001
2
 0.9995 0.0005
2
 0.99995 5e-05
2
 0.9999 0.0001
2
 0.99985 0.00015
2
 0.9999 0.0001
2
 0.9996 0.0004
2
 0.99998 2e-05
2
 0.9998 0.0002
2
 0.99999 1e-05
2
 0.9999 0.0001
2
 0.9999 0.0001
2
 0.9995 0.0005
2
 0.99999 1e-05
2
 0.999997 2.88e-06
2
 0.9995 0.0005
2
 0.99922 0.00078
2
 0.9994 0.0006
2
 0.9998 0.0002
2
 0.99993 7e-05
2
 0.9999 0.0001
2
 0.9991 0.0009
2
 0.9998 0.0002
2
 0.99995 5e-05
2
 0.9998 0.0002
2
 0.9999 0.0001
2
 0.9998 0.0002
2
 0.9994 0.0006
2
 0.99975 0.00025
2
 0.99999 1e-05
2
 0.9999 0.0001
2
 0.9999 0.0001
2
 0.9995 0.0005
2
 0.99996 4e-05
2
 0.9998 0.0002
2
 0.9998 0.0002
2
 0.9997 0.0003
2
 0.99984 0.00016
2
 0.99993 7e-05
2
 0.9996 0.0004
2
 0.99997 3e-05
2
 0.999 0.001
2
 0.9999 0.0001
2
 0.9996 0.0004
2
 0.9999 0.0001
2
 0.9999 0.0001
2
 0.99998 2e-05
2
 0.99995 5e-05
2
 0.9965 0.0035
2
 0.9999 0.0001
2
 0.9928 0.0072
2
 0.9999 0.0001
2
 0.99996 4e-05
2
 0.99985 0.00015
2
 0.9999 0.0001
2
 0.9999 0.0001
2
 0.9999 0.0001
2
 0.9995 0.0005
2
 0.999977 2.291e-05
2
 0.999999 1e-06
2
 0.9982 0.0018
2
 0.99989 0.00011
2
 0.99995 5e-05
2
 1 4e-07
2
 0.9988 0.0012
2
 0.99995 5e-05
2
 0.9985 0.0015
2
 0.9999 0.0001
2
 0.99987 0.00013
2
 0.9999 0.0001
2
 0.999999 6.2e-07
2
 0.99995 5e-05
2
 0.99999 1e-05
2
 0.99998 2e-05
2
 1 1.2e-07
2
 0.998 0.002
2
 0.99998 2e-05
2
 0.9996 0.0004
2
 0.9985 0.0015
2
 0.99998 2e-05
2
 0.99995 5e-05
2
 0.9999 0.0001
2
 0.999997 2.82e-06
2
 0.99998 2e-05
2
 0.99999 1e-05
2
 0.9999 0.0001
2
 0.9995 0.0005
2
 0.9999 0.0001
2
 0.9999 0.0001
2
 0.9995 0.0005
2
 0.999996 4e-06
2
 1 1.6e-07
2
 0.9999 0.0001
2
 0.9994 0.0006
2
 0.9999 0.0001
2
 0.9999 0.0001
2
 0.9998 0.0002
2
 0.999907 9.332e-05
2
 0.9999 0.0001
2
 0.9998 0.0002
2
 0.9994 0.0006
2
 0.99989 0.00011
2
 0.9999 0.0001
2
 0.999969 3.12e-05
2
 0.99995 5e-05
2
 0.999992 8e-06
2
 0.9999 0.0001
2
 0.99975 0.00025
2
 0.9999 0.0001
2
 0.99999 1e-05
2
 0.9995 0.0005
2
 0.9999 0.0001
2
 0.99999 1e-05
2
 0.9998 0.0002
2
 0.9994 0.0006
2
 0.9999 0.0001
2
 0.99998 2e-05
2
 0.9999 0.0001
2
 0.9999 0.0001
2
 0.9995 0.0005
2
 0.9995 0.0005
2
 0.99991 9e-05
2
 0.99991 9e-05
2
 0.9999 0.0001
2
 0.9999 0.0001
2
 0.99995 5e-05
2
 0.99997 3e-05
2
 0.99997 3e-05
2
 0.99995 5e-05
2
 0.99994 6e-05
2
 0.996 0.004
2
 0.9979 0.0021
2
 0.9998 0.0002
2
 0.9999 0.0001
2
 0.99989 0.00011
2
 0.9999 0.0001
2
 0.99998 2e-05
2
 0.999999 1e-06
2
 0.99997 3e-05
2
 0.99997 3e-05
2
 0.9999 0.0001
2
 0.999999 1e-06
2
 0.9998 0.0002
2
 0.9995 0.0005
2
 0.9999 0.0001
2
 0.9999 0.0001
2
 0.9999 0.0001
2
 0.99995 5e-05
2
 0.999999 1e-06
2
 0.9999 0.0001
2
 0.999 0.001
2
 0.99997 3e-05
2
 0.9999 0.0001
2
 0.99999 1e-05
2
 0.9999 0.0001
2
 0.99996 4e-05
2
 0.9995 0.0005
2
 0.9999 0.0001
2
 0.9999 0.0001
2
 0.9998 0.0002
2
 0.999 0.001
2
 0.99996 4e-05
2
 0.9998 0.0002
2
 0.9994 0.0006
2
 0.99997 3e-05
2
 0.99998 2e-05
2
 0.9999 0.0001
2
 0.99996 4e-05
2
 0.99993 7e-05
1
 1

